3 48 1 10
18 15 14 15 9 20 11 2 5 6 18 3 13 10 2 7 16 12 20 9 19 15 14 10 13 1 20 5 16 19 8 17 18 14 19 8 9 4 8 2 11 9 4 1 17 3 5 5 
5.94 2.2 2.84 0.2 2.17 6.43 6.69 2.97 7.84 1.31 2.78 4.07 7.42 4.32 1.51 5.06 3.21 3.32 2.88 5.95 4.93 6.21 2.84 0.6 2.01 1.94 5.18 5.12 3.75 4.53 5.59 2.24 4.36 3.06 3.25 5.66 4.01 5.81 6.61 6.15 5.8 7.95 2.69 4.28 3.87 3.61 0.25 2.02 
4 4 4 4 4 4 4 4 4 4 4 4 4 4 4 4 4 4 4 4 4 4 4 4 4 4 4 4 4 4 4 4 4 4 4 4 4 4 4 4 4 4 4 4 4 4 4 4 
7.07 3.8 7.75 1.07 6.02 4.09 7.1 3.76 1.35 1.76 2.83 2 1.12 0.91 0.42 1.18 3.04 7.36 4.33 0.94 6.42 2.83 6.96 1.66 1.94 0.84 6.96 6.16 7.25 2.83 4.91 4.87 6.28 6.72 7.65 4.69 4.17 6.53 0.96 3.92 1.52 6.77 4.76 3.93 5.46 4.54 3.13 4.07 
1 1 1 1 1 1 1 1 1 1 1 1 1 1 1 1 1 1 1 1 1 1 1 1 1 1 1 1 1 1 1 1 1 1 1 1 1 1 1 1 1 1 1 1 1 1 1 1 
1 1 1 1 1 1 1 1 1 1 1 1 1 1 1 1 1 1 1 1 1 1 1 1 1 1 1 1 1 1 1 1 1 1 1 1 1 1 1 1 1 1 1 1 1 1 1 1 
1 1 1 1 1 1 1 1 1 1 1 1 1 1 1 1 1 1 1 1 1 1 1 1 1 1 1 1 1 1 1 1 1 1 1 1 1 1 1 1 1 1 1 1 1 1 1 1 
0.01 0.01 0.01 0.01 0.01 0.01 0.01 0.01 0.01 0.01 0.01 0.01 0.01 0.01 0.01 0.01 0.01 0.01 0.01 0.01 0.01 0.01 0.01 0.01 0.01 0.01 0.01 0.01 0.01 0.01 0.01 0.01 0.01 0.01 0.01 0.01 0.01 0.01 0.01 0.01 0.01 0.01 0.01 0.01 0.01 0.01 0.01 0.01 
0.02 0.02 0.02 0.02 0.02 0.02 0.02 0.02 0.02 0.02 0.02 0.02 0.02 0.02 0.02 0.02 0.02 0.02 0.02 0.02 0.02 0.02 0.02 0.02 0.02 0.02 0.02 0.02 0.02 0.02 0.02 0.02 0.02 0.02 0.02 0.02 0.02 0.02 0.02 0.02 0.02 0.02 0.02 0.02 0.02 0.02 0.02 0.02 
1 1 1 1 1 1 1 1 1 1 1 1 1 1 1 1 1 1 1 1 1 1 1 1 1 1 1 1 1 1 1 1 1 1 1 1 1 1 1 1 1 1 1 1 1 1 1 1 
